 vasp.6.3.0 20Jan22 (build Feb 10 2022 15:15:41) complex

 executed on             LinuxIFC date 2023.09.09  16:12:33

 INCAR:
   ENCUT = 400
   ISMEAR = 0
   SIGMA = 0.05
   IBRION = 2
   ISIF = 4
   NSW = 100
   EDIFF = 1E-05
   EDIFFG = -0.01

 POTCAR:    PAW_PBE Al 04Jan2001
|           W    W    AA    RRRRR   N    N  II  N    N   GGGG   !!!           |
|           W    W   A  A   R    R  NN   N  II  NN   N  G    G  !!!           |
|           W    W  A    A  R    R  N N  N  II  N N  N  G       !!!           |
|           W WW W  AAAAAA  RRRRR   N  N N  II  N  N N  G  GGG   !            |
|           WW  WW  A    A  R   R   N   NN  II  N   NN  G    G                |
|           W    W  A    A  R    R  N    N  II  N    N   GGGG   !!!           |
|     For optimal performance we recommend to set                             |
|       NCORE = 2 up to number-of-cores-per-socket                            |
|     This setting can greatly improve the performance of VASP for DFT.       |
|     The default, NCORE=1 might be grossly inefficient on modern             |
|     multi-core architectures or massively parallel machines. Do your        |
|     Unfortunately you need to use the default for GW and RPA                |
|     calculations (for HF NCORE is supported but not extensively tested      |
|     yet).                                                                   |

   TITEL  = PAW_PBE Al 04Jan2001
   POMASS =   26.981; ZVAL   =    3.000    mass and valenz
   ENMAX  =  240.300; ENMIN  =  180.225 eV

  PAW_PBE Al 04Jan2001                  :

 POSCAR: Al4
  positions in direct lattice
 exchange correlation table for  LEXCH =        8
   RHO(1)=    0.500       N(1)  =     2000
   RHO(2)=  100.500       N(2)  =     4000

 ion  position               nearest neighbor table
   1  0.000  0.000  0.000-   2 2.80   3 2.80   4 2.80   2 2.80   3 2.80   2 2.80   4 2.80   2 2.80
                             3 2.80   4 2.80   3 2.80   4 2.80
   2  0.000  0.500  0.500-   1 2.80   3 2.80   4 2.80   1 2.80   4 2.80   1 2.80   3 2.80   1 2.80
                             3 2.80   4 2.80   4 2.80   3 2.80
   3  0.500  0.000  0.500-   1 2.80   2 2.80   4 2.80   1 2.80   4 2.80   2 2.80   4 2.80   4 2.80
                             1 2.80   2 2.80   1 2.80   2 2.80
   4  0.500  0.500  0.000-   1 2.80   2 2.80   3 2.80   2 2.80   3 2.80   1 2.80   3 2.80   3 2.80
                             1 2.80   2 2.80   2 2.80   1 2.80

  LATTYP: Found a simple cubic cell.
 ALAT       =     3.9576449057

  Lattice vectors:

 A1 = (   3.9576449057,   0.0000000000,   0.0000000000)
 A2 = (   0.0000000000,   3.9576449057,   0.0000000000)
 A3 = (   0.0000000000,   0.0000000000,   3.9576449057)

Analysis of symmetry for initial positions (statically):
 Subroutine PRICEL returns following result:

  LATTYP: Found a face centered cubic cell.
 ALAT       =     3.9576449057

[...]

   4 primitive cells build up your supercell.

 Routine SETGRP: Setting up the symmetry group for a
 simple cubic supercell.

 Subroutine GETGRP returns: Found 48 space group operations
 (whereof 48 operations were pure point group operations)
 out of a pool of 48 trial point group operations.

The static configuration has the point symmetry O_h .

Analysis of symmetry for dynamics (positions and initial velocities):
 Subroutine PRICEL returns following result:

  LATTYP: Found a face centered cubic cell.
 ALAT       =     3.9576449057

  Lattice vectors:

 A1 = (   1.9788224528,  -1.9788224528,   0.0000000000)
 A2 = (   1.9788224528,   0.0000000000,   1.9788224528)
 A3 = (   0.0000000000,  -1.9788224528,   1.9788224528)

   4 primitive cells build up your supercell.

 Routine SETGRP: Setting up the symmetry group for a
 simple cubic supercell.

 Subroutine GETGRP returns: Found 48 space group operations
 (whereof 48 operations were pure point group operations)
 out of a pool of 48 trial point group operations.

The dynamic configuration has the point symmetry O_h .

 Subroutine INISYM returns: Found 48 space group operations
 (whereof 48 operations are pure point group operations),
 and found     4 'primitive' translations

                                     Primitive cell

  volume of cell :      15.4971

  direct lattice vectors                    reciprocal lattice vectors
     1.978822453 -1.978822453  0.000000000     0.252675524 -0.252675524 -0.252675524
     1.978822453  0.000000000  1.978822453     0.252675524  0.252675524  0.252675524
     0.000000000 -1.978822453  1.978822453    -0.252675524 -0.252675524  0.252675524

  length of vectors
     2.798477550  2.798477550  2.798477550     0.437646845  0.437646845  0.437646845

  position of ions in fractional coordinates (direct lattice)
     0.000000000  0.000000000  0.000000000

  ion indices of the primitive-cell ions
   primitive index   ion index
                 1           1

 KPOINTS: k-points

Automatic generation of k-mesh.
 Grid dimensions read from file:
 generate k-points for:   16   16   16

 Generating k-lattice:

  Cartesian coordinates                     Fractional coordinates (reciprocal lattice)
     0.015792220  0.000000000  0.000000000     0.062500000  0.000000000  0.000000000
     0.000000000  0.015792220  0.000000000     0.000000000  0.062500000  0.000000000
     0.000000000  0.000000000  0.015792220     0.000000000  0.000000000  0.062500000

  Length of vectors
     0.015792220  0.015792220  0.015792220

  Shift w.r.t. Gamma in fractional coordinates (k-lattice)
     0.000000000  0.000000000  0.000000000

 Subroutine IBZKPT returns following result:

 Found    165 irreducible k-points:

 Following reciprocal coordinates:
            Coordinates               Weight
  0.000000  0.000000  0.000000      1.000000
  0.062500  0.000000  0.000000      6.000000
  0.125000  0.000000  0.000000      6.000000
  0.187500  0.000000  0.000000      6.000000
  0.250000  0.000000  0.000000      6.000000
  0.312500  0.000000  0.000000      6.000000
  0.375000  0.000000  0.000000      6.000000
  0.437500  0.000000  0.000000      6.000000
  0.500000  0.000000  0.000000      3.000000
  0.062500  0.062500  0.000000     12.000000
  0.125000  0.062500  0.000000     24.000000
  0.187500  0.062500  0.000000     24.000000
  0.250000  0.062500  0.000000     24.000000
  0.312500  0.062500  0.000000     24.000000
  0.375000  0.062500  0.000000     24.000000
  0.437500  0.062500  0.000000     24.000000
  0.500000  0.062500  0.000000     12.000000
  0.125000  0.125000  0.000000     12.000000
  0.187500  0.125000  0.000000     24.000000
  0.250000  0.125000  0.000000     24.000000
  0.312500  0.125000  0.000000     24.000000
  0.375000  0.125000  0.000000     24.000000
  0.437500  0.125000  0.000000     24.000000
  0.500000  0.125000  0.000000     12.000000
  0.187500  0.187500  0.000000     12.000000
  0.250000  0.187500  0.000000     24.000000
  0.312500  0.187500  0.000000     24.000000
  0.375000  0.187500  0.000000     24.000000
  0.437500  0.187500  0.000000     24.000000
  0.500000  0.187500  0.000000     12.000000
  0.250000  0.250000  0.000000     12.000000
  0.312500  0.250000  0.000000     24.000000
  0.375000  0.250000  0.000000     24.000000
  0.437500  0.250000  0.000000     24.000000
  0.500000  0.250000  0.000000     12.000000
  0.312500  0.312500  0.000000     12.000000
  0.375000  0.312500  0.000000     24.000000
  0.437500  0.312500  0.000000     24.000000
  0.500000  0.312500  0.000000     12.000000
  0.375000  0.375000  0.000000     12.000000
  0.437500  0.375000  0.000000     24.000000
  0.500000  0.375000  0.000000     12.000000
  0.437500  0.437500  0.000000     12.000000
  0.500000  0.437500  0.000000     12.000000
  0.500000  0.500000  0.000000      3.000000
  0.062500  0.062500  0.062500      8.000000
  0.125000  0.062500  0.062500     24.000000
  0.187500  0.062500  0.062500     24.000000
  0.250000  0.062500  0.062500     24.000000
  0.312500  0.062500  0.062500     24.000000
  0.375000  0.062500  0.062500     24.000000
  0.437500  0.062500  0.062500     24.000000
  0.500000  0.062500  0.062500     12.000000
  0.125000  0.125000  0.062500     24.000000
  0.187500  0.125000  0.062500     48.000000
  0.250000  0.125000  0.062500     48.000000
  0.312500  0.125000  0.062500     48.000000
  0.375000  0.125000  0.062500     48.000000
  0.437500  0.125000  0.062500     48.000000
  0.500000  0.125000  0.062500     24.000000
[...]
  0.437500  0.375000  0.312500     48.000000
  0.500000  0.375000  0.312500     24.000000
  0.437500  0.437500  0.312500     24.000000
  0.500000  0.437500  0.312500     24.000000
  0.500000  0.500000  0.312500      6.000000
  0.375000  0.375000  0.375000      8.000000
  0.437500  0.375000  0.375000     24.000000
  0.500000  0.375000  0.375000     12.000000
  0.437500  0.437500  0.375000     24.000000
  0.500000  0.437500  0.375000     24.000000
  0.500000  0.500000  0.375000      6.000000
  0.437500  0.437500  0.437500      8.000000
  0.500000  0.437500  0.437500     12.000000
  0.500000  0.500000  0.437500      6.000000
  0.500000  0.500000  0.500000      1.000000

 Following cartesian coordinates:
            Coordinates               Weight
  0.000000  0.000000  0.000000      1.000000
  0.015476  0.000000  0.000000      6.000000
  0.030953  0.000000  0.000000      6.000000
  0.046429  0.000000  0.000000      6.000000
  0.061906  0.000000  0.000000      6.000000
  0.077382  0.000000  0.000000      6.000000
  0.092858  0.000000  0.000000      6.000000
  0.108335  0.000000  0.000000      6.000000
  0.123811  0.000000  0.000000      3.000000
  0.015476  0.015476  0.000000     12.000000
  0.030953  0.015476  0.000000     24.000000
  0.046429  0.015476  0.000000     24.000000
  0.061906  0.015476  0.000000     24.000000
  0.077382  0.015476  0.000000     24.000000
  0.092858  0.015476  0.000000     24.000000
  0.108335  0.015476  0.000000     24.000000
  0.123811  0.015476  0.000000     12.000000
  0.030953  0.030953  0.000000     12.000000
  0.046429  0.030953  0.000000     24.000000
  0.061906  0.030953  0.000000     24.000000
  0.077382  0.030953  0.000000     24.000000
  0.092858  0.030953  0.000000     24.000000
  0.108335  0.030953  0.000000     24.000000
  0.123811  0.030953  0.000000     12.000000
  0.046429  0.046429  0.000000     12.000000
  0.061906  0.046429  0.000000     24.000000
  0.077382  0.046429  0.000000     24.000000
  0.092858  0.046429  0.000000     24.000000
  0.108335  0.046429  0.000000     24.000000
  0.123811  0.046429  0.000000     12.000000
  0.061906  0.061906  0.000000     12.000000
  0.077382  0.061906  0.000000     24.000000
  0.092858  0.061906  0.000000     24.000000
  0.108335  0.061906  0.000000     24.000000
  0.123811  0.061906  0.000000     12.000000
  0.077382  0.077382  0.000000     12.000000
  0.092858  0.077382  0.000000     24.000000
  0.108335  0.077382  0.000000     24.000000
  0.123811  0.077382  0.000000     12.000000
  0.092858  0.092858  0.000000     12.000000
  0.108335  0.092858  0.000000     24.000000
  0.123811  0.092858  0.000000     12.000000
  0.108335  0.108335  0.000000     12.000000
  0.123811  0.108335  0.000000     12.000000
  0.123811  0.123811  0.000000      3.000000
[...]
   0.18750000  0.18750000  0.00000000       0.003
   0.25000000  0.18750000  0.00000000       0.006
   0.31250000  0.18750000  0.00000000       0.006
   0.37500000  0.18750000  0.00000000       0.006
   0.43750000  0.18750000  0.00000000       0.006
   0.50000000  0.18750000  0.00000000       0.003
   0.25000000  0.25000000  0.00000000       0.003
   0.31250000  0.25000000  0.00000000       0.006
   0.37500000  0.25000000  0.00000000       0.006
   0.43750000  0.25000000  0.00000000       0.006
   0.50000000  0.25000000  0.00000000       0.003
   0.31250000  0.31250000  0.00000000       0.003
   0.37500000  0.31250000  0.00000000       0.006
   0.43750000  0.31250000  0.00000000       0.006
   0.50000000  0.31250000  0.00000000       0.003
   0.37500000  0.37500000  0.00000000       0.003
   0.43750000  0.37500000  0.00000000       0.006
   0.50000000  0.37500000  0.00000000       0.003
   0.43750000  0.43750000  0.00000000       0.003
   0.50000000  0.43750000  0.00000000       0.003
   0.50000000  0.50000000  0.00000000       0.001
   0.06250000  0.06250000  0.06250000       0.002
   0.12500000  0.06250000  0.06250000       0.006
   0.18750000  0.06250000  0.06250000       0.006
   0.25000000  0.06250000  0.06250000       0.006
   0.31250000  0.06250000  0.06250000       0.006
   0.37500000  0.06250000  0.06250000       0.006
   0.43750000  0.06250000  0.06250000       0.006
   0.50000000  0.06250000  0.06250000       0.003
   0.12500000  0.12500000  0.06250000       0.006
   0.18750000  0.12500000  0.06250000       0.012
   0.25000000  0.12500000  0.06250000       0.012
   0.31250000  0.12500000  0.06250000       0.012
   0.37500000  0.12500000  0.06250000       0.012
   0.43750000  0.12500000  0.06250000       0.012
   0.50000000  0.12500000  0.06250000       0.006
[...]
   0.43750000  0.37500000  0.31250000       0.012
   0.50000000  0.37500000  0.31250000       0.006
   0.43750000  0.43750000  0.31250000       0.006
   0.50000000  0.43750000  0.31250000       0.006
   0.50000000  0.50000000  0.31250000       0.001
   0.37500000  0.37500000  0.37500000       0.002
   0.43750000  0.37500000  0.37500000       0.006
   0.50000000  0.37500000  0.37500000       0.003
   0.43750000  0.43750000  0.37500000       0.006
   0.50000000  0.43750000  0.37500000       0.006
   0.50000000  0.50000000  0.37500000       0.001
   0.43750000  0.43750000  0.43750000       0.002
   0.50000000  0.43750000  0.43750000       0.003
   0.50000000  0.50000000  0.43750000       0.001
   0.50000000  0.50000000  0.50000000       0.000

 position of ions in fractional coordinates (direct lattice)
   0.00000000  0.00000000  0.00000000
   0.00000000  0.50000000  0.50000000
   0.50000000  0.00000000  0.50000000
   0.50000000  0.50000000  0.00000000

 position of ions in cartesian coordinates  (Angst):
   0.00000000  0.00000000  0.00000000
   0.00000000  1.97882245  1.97882245
   1.97882245  0.00000000  1.97882245
   1.97882245  1.97882245  0.00000000

 k-point   1 :   0.0000 0.0000 0.0000  plane waves:    1141
 k-point   2 :   0.0625 0.0000 0.0000  plane waves:    1149
 k-point   3 :   0.1250 0.0000 0.0000  plane waves:    1129
 k-point   4 :   0.1875 0.0000 0.0000  plane waves:    1121
 k-point   5 :   0.2500 0.0000 0.0000  plane waves:    1141
 k-point   6 :   0.3125 0.0000 0.0000  plane waves:    1133
 k-point   7 :   0.3750 0.0000 0.0000  plane waves:    1141
 k-point   8 :   0.4375 0.0000 0.0000  plane waves:    1133
 k-point   9 :   0.5000 0.0000 0.0000  plane waves:    1140
 k-point  10 :   0.0625 0.0625 0.0000  plane waves:    1145
 k-point  11 :   0.1250 0.0625 0.0000  plane waves:    1141
 k-point  12 :   0.1875 0.0625 0.0000  plane waves:    1127
 k-point  13 :   0.2500 0.0625 0.0000  plane waves:    1128
 k-point  14 :   0.3125 0.0625 0.0000  plane waves:    1131
 k-point  15 :   0.3750 0.0625 0.0000  plane waves:    1137
 k-point  16 :   0.4375 0.0625 0.0000  plane waves:    1132
 k-point  17 :   0.5000 0.0625 0.0000  plane waves:    1134
 k-point  18 :   0.1250 0.1250 0.0000  plane waves:    1129
 k-point  19 :   0.1875 0.1250 0.0000  plane waves:    1127
 k-point  20 :   0.2500 0.1250 0.0000  plane waves:    1135
 k-point  21 :   0.3125 0.1250 0.0000  plane waves:    1133
 k-point  22 :   0.3750 0.1250 0.0000  plane waves:    1124
 k-point  23 :   0.4375 0.1250 0.0000  plane waves:    1127
 k-point  24 :   0.5000 0.1250 0.0000  plane waves:    1126
 k-point  25 :   0.1875 0.1875 0.0000  plane waves:    1129
 k-point  26 :   0.2500 0.1875 0.0000  plane waves:    1129
 k-point  27 :   0.3125 0.1875 0.0000  plane waves:    1132
 k-point  28 :   0.3750 0.1875 0.0000  plane waves:    1127
 k-point  29 :   0.4375 0.1875 0.0000  plane waves:    1131
 k-point  30 :   0.5000 0.1875 0.0000  plane waves:    1130
 k-point  31 :   0.2500 0.2500 0.0000  plane waves:    1141
 k-point  32 :   0.3125 0.2500 0.0000  plane waves:    1130
 k-point  33 :   0.3750 0.2500 0.0000  plane waves:    1126
 k-point  34 :   0.4375 0.2500 0.0000  plane waves:    1129
 k-point  35 :   0.5000 0.2500 0.0000  plane waves:    1122
 k-point  36 :   0.3125 0.3125 0.0000  plane waves:    1131
 k-point  37 :   0.3750 0.3125 0.0000  plane waves:    1126
 k-point  38 :   0.4375 0.3125 0.0000  plane waves:    1122
 k-point  39 :   0.5000 0.3125 0.0000  plane waves:    1128
 k-point  40 :   0.3750 0.3750 0.0000  plane waves:    1121
 k-point  41 :   0.4375 0.3750 0.0000  plane waves:    1115
 k-point  42 :   0.5000 0.3750 0.0000  plane waves:    1118
 k-point  43 :   0.4375 0.4375 0.0000  plane waves:    1126
 k-point  44 :   0.5000 0.4375 0.0000  plane waves:    1112
 k-point  45 :   0.5000 0.5000 0.0000  plane waves:    1132
 k-point  46 :   0.0625 0.0625 0.0625  plane waves:    1135
 k-point  47 :   0.1250 0.0625 0.0625  plane waves:    1127
 k-point  48 :   0.1875 0.0625 0.0625  plane waves:    1126
 k-point  49 :   0.2500 0.0625 0.0625  plane waves:    1132
 k-point  50 :   0.3125 0.0625 0.0625  plane waves:    1132
 k-point  51 :   0.3750 0.0625 0.0625  plane waves:    1135
 k-point  52 :   0.4375 0.0625 0.0625  plane waves:    1139
 k-point  53 :   0.5000 0.0625 0.0625  plane waves:    1140
 k-point  54 :   0.1250 0.1250 0.0625  plane waves:    1124
 k-point  55 :   0.1875 0.1250 0.0625  plane waves:    1124
 k-point  56 :   0.2500 0.1250 0.0625  plane waves:    1129
 k-point  57 :   0.3125 0.1250 0.0625  plane waves:    1133
 k-point  58 :   0.3750 0.1250 0.0625  plane waves:    1132
 k-point  59 :   0.4375 0.1250 0.0625  plane waves:    1134
 k-point  60 :   0.5000 0.1250 0.0625  plane waves:    1140
[...]
 k-point 151 :   0.4375 0.3750 0.3125  plane waves:    1113
 k-point 152 :   0.5000 0.3750 0.3125  plane waves:    1120
 k-point 153 :   0.4375 0.4375 0.3125  plane waves:    1111
 k-point 154 :   0.5000 0.4375 0.3125  plane waves:    1112
 k-point 155 :   0.5000 0.5000 0.3125  plane waves:    1112
 k-point 156 :   0.3750 0.3750 0.3750  plane waves:    1121
 k-point 157 :   0.4375 0.3750 0.3750  plane waves:    1113
 k-point 158 :   0.5000 0.3750 0.3750  plane waves:    1110
 k-point 159 :   0.4375 0.4375 0.3750  plane waves:    1106
 k-point 160 :   0.5000 0.4375 0.3750  plane waves:    1102
 k-point 161 :   0.5000 0.5000 0.3750  plane waves:    1104
 k-point 162 :   0.4375 0.4375 0.4375  plane waves:    1094
 k-point 163 :   0.5000 0.4375 0.4375  plane waves:    1092
 k-point 164 :   0.5000 0.5000 0.4375  plane waves:    1088
 k-point 165 :   0.5000 0.5000 0.5000  plane waves:    1088

 maximum and minimum number of plane-waves per node :      1149     1088

 maximum number of plane-waves:      1149
 maximum index in each direction:
   IXMAX=    6   IYMAX=    6   IZMAX=    6
   IXMIN=   -6   IYMIN=   -6   IZMIN=   -6

 serial   3D FFT for wavefunctions
 parallel 3D FFT for charge:
    minimum data exchange during FFTs selected (reduces bandwidth)

 Broyden mixing: mesh for mixing (old mesh)
   NGX = 13   NGY = 13   NGZ = 13
  (NGX  = 40   NGY  = 40   NGZ  = 40)
  gives a total of   2197 points

 initial charge density was supplied:
 charge density of overlapping atoms calculated
 number of electron      12.0000000 magnetization
 keeping initial charge density in first step

 Maximum index for augmentation-charges          349 (set IRDMAX)

 First call to EWALD:  gamma=   0.448
 Maximum number of real-space cells 3x 3x 3
 Maximum number of reciprocal cells 3x 3x 3

--------------------------------------- Iteration      1(   1)  ---------------------------------------

 eigenvalue-minimisations  :  7944
 total energy-change (2. order) :-0.7487179E+01  (-0.4008346E+03)
 number of electron      12.0000000 magnetization
 augmentation part       12.0000000 magnetization

 Free energy of the ion-electron system (eV)
  alpha Z        PSCENC =        -0.86695176
  Ewald energy   TEWEN  =      -300.27421003
  -Hartree energ DENC   =        -0.32762189
  -exchange      EXHF   =         0.00000000
  -V(xc)+E(xc)   XCENC  =      -104.50217822
  PAW double counting   =       264.80062850     -136.98248303
  entropy T*S    EENTRO =        -0.00202025
  eigenvalues    EBANDS =        56.51504045
  atomic energy  EATOM  =       214.15261729
  Solvation  Ediel_sol  =         0.00000000
  free energy    TOTEN  =        -7.48717892 eV

  energy without entropy =       -7.48515867  energy(sigma->0) =       -7.48616880

[...]

 eigenvalue-minimisations  : 10800
 total energy-change (2. order) :-0.4517858E-08  (-0.5384953E-08)
 number of electron      12.0000001 magnetization
 augmentation part       -0.1432835 magnetization

 Broyden mixing:
  rms(total) = 0.28352E+00    rms(broyden)= 0.28352E+00
  rms(prec ) = 0.48986E+00
  weight for this iteration     100.00

[...]

 eigenvalue-minimisations  : 11496
 total energy-change (2. order) : 0.5476319E-01  (-0.5327723E-03)
 number of electron      12.0000001 magnetization
 augmentation part       -0.1452111 magnetization

[...]

 eigenvalues of (default mixing * dielectric matrix)
  average eigenvalue GAMMA=   2.3427
  2.3427

[...]

 Broyden mixing:
  rms(total) = 0.64328E-02    rms(broyden)= 0.64328E-02
  rms(prec ) = 0.73692E-02
  weight for this iteration     100.00

 eigenvalues of (default mixing * dielectric matrix)
  average eigenvalue GAMMA=   2.1066
  1.0402  2.5814  2.6981

[...]

--------------------------------------- Iteration      1(   9)  ---------------------------------------

 eigenvalue-minimisations  : 10704
 total energy-change (2. order) : 0.8441264E-05  (-0.3239845E-06)
 number of electron      12.0000001 magnetization
 augmentation part       -0.1493456 magnetization

 Free energy of the ion-electron system (eV)
  alpha Z        PSCENC =        -0.86695176
  Ewald energy   TEWEN  =      -300.27421003
  -Hartree energ DENC   =        -0.46804563
  -exchange      EXHF   =         0.00000000
  -V(xc)+E(xc)   XCENC  =      -104.00925142
  PAW double counting   =       630.96201305     -503.23867117
  entropy T*S    EENTRO =        -0.00124227
  eigenvalues    EBANDS =        48.81858559
  atomic energy  EATOM  =       214.15261729
  Solvation  Ediel_sol  =         0.00000000
  free energy    TOTEN  =       -14.92515635 eV

  energy without entropy =      -14.92391408  energy(sigma->0) =      -14.92453522

 average (electrostatic) potential at core
  the test charge radii are     1.0406
  (the norm of the test charge is              1.0000)
       1 -71.8671       2 -71.8671       3 -71.8671       4 -71.8671

 E-fermi :   8.6735     XC(G=0): -10.4254     alpha+bet :-15.8391

 Fermi energy:         8.6734865492

 k-point     1 :       0.0000    0.0000    0.0000
  band No.  band energies     occupation
      1      -2.9043      2.00000
      2       5.5952      2.00000
      3       5.5952      2.00000
      4       5.5952      2.00000
      5       7.0518      2.00000
      6       7.0518      2.00000
      7       7.0518      2.00000
      8      13.9426      0.00000
      9      13.9426      0.00000
     10      13.9426      0.00000
     11      14.5675      0.00000
     12      14.5675      0.00000
     13      14.5675      0.00000
     14      14.5675      0.00000
     15      14.5675      0.00000
     16      14.5675      0.00000
     17      18.3570      0.00000
     18      18.3570      0.00000
     19      18.3570      0.00000
     20      21.6479      0.00000
     21      21.6479      0.00000
     22      21.6479      0.00000
     23      23.6238      0.00000
     24      23.6238      0.00000

[...]

 k-point   165 :       0.5000    0.5000    0.5000
  band No.  band energies     occupation
      1       3.8245      2.00000
      2       3.8245      2.00000
      3       3.8245      2.00000
      4       3.8245      2.00000
      5       4.2046      2.00000
      6       4.2046      2.00000
      7       4.2046      2.00000
      8       4.2046      2.00000
      9      20.4286      0.00000
     10      20.4286      0.00000
     11      20.4286      0.00000
     12      20.4286      0.00000
     13      20.4286      0.00000
     14      20.4286      0.00000
     15      20.4286      0.00000
     16      20.4286      0.00000
     17      20.7680      0.00000
     18      20.7680      0.00000
     19      20.7680      0.00000
     20      20.7680      0.00000
     21      20.7680      0.00000
     22      20.7680      0.00000
     23      20.7680      0.00000
     24      20.7680      0.00000

 soft charge-density along one line, spin component           1
         0         1         2         3         4         5         6         7         8         9
 total charge-density along one line

------------------------ aborting loop because EDIFF is reached ----------------------------------------

  FORCE on cell =-STRESS in cart. coord.  units (eV):
  Direction    XX          YY          ZZ          XY          YZ          ZX
  Alpha Z    -0.86695    -0.86695    -0.86695
  Ewald    -100.09145  -100.09145  -100.09145    -0.00000    -0.00000    -0.00000
  Hartree     0.15602     0.15602     0.15602    -0.00000    -0.00000    -0.00000
  E(xc)     -34.96280   -34.96280   -34.96280     0.00000    -0.00000     0.00000
  Local       2.43288     2.43288     2.43288    -0.00000     0.00000     0.00000
  n-local    75.45114    76.40347    78.75747     0.42289     1.27673     0.53647
  augment    -3.97932    -3.97932    -3.97932     0.00000     0.00000     0.00000
  Kinetic    59.56283    61.90229    66.20649     1.64309    -8.44991    -1.63020
  Fock        0.00000     0.00000     0.00000     0.00000     0.00000     0.00000
  Total       2.11628     2.11628     2.11628     0.00000     0.00000    -0.00000
  in kB      54.69829    54.69829    54.69829     0.00000     0.00000    -0.00000

 VOLUME and BASIS-vectors are now :
  energy-cutoff  :      400.00
  volume of cell :       61.99
      direct lattice vectors                 reciprocal lattice vectors
     3.957644906  0.000000000  0.000000000     0.252675524  0.000000000  0.000000000
     0.000000000  3.957644906  0.000000000     0.000000000  0.252675524  0.000000000
     0.000000000  0.000000000  3.957644906     0.000000000  0.000000000  0.252675524

  length of vectors
     3.957644906  3.957644906  3.957644906     0.252675524  0.252675524  0.252675524

 FORCES acting on ions
    electron-ion (+dipol)            ewald-force                    non-local-force                 convergence-correction
   -.848E-14 -.273E-14 0.813E-14   -.251E-14 -.122E-14 0.147E-15   -.425E-24 -.713E-24 0.400E-24   -.970E-15 -.415E-15 0.194E-14
   -.868E-14 -.137E-14 -.173E-14   -.259E-14 0.407E-15 0.399E-15   -.233E-24 -.101E-24 -.251E-24   -.108E-14 0.433E-15 -.205E-14
   -.372E-15 0.309E-15 -.328E-13   0.259E-14 -.371E-15 0.401E-15   -.674E-25 -.194E-25 -.746E-24   0.109E-14 -.376E-15 -.206E-14
   -.147E-14 -.842E-14 0.226E-13   0.251E-14 0.126E-14 -.745E-15   -.124E-24 0.665E-24 0.460E-24   0.121E-14 0.372E-15 0.196E-14
   -.190E-13 -.122E-13 -.375E-14   0.497E-17 0.723E-16 0.202E-15   -.850E-24 -.168E-24 -.137E-24   0.248E-15 0.146E-16 -.212E-15

 POSITION                                       TOTAL-FORCE (eV/Angst)
      0.00000      0.00000      0.00000        -0.000000      0.000000      0.000000
      0.00000      1.97882      1.97882        -0.000000     -0.000000     -0.000000
      1.97882      0.00000      1.97882         0.000000      0.000000      0.000000
      1.97882      1.97882      0.00000         0.000000     -0.000000      0.000000
    total drift:                               -0.000000     -0.000000     -0.000000

  FREE ENERGIE OF THE ION-ELECTRON SYSTEM (eV)
  free  energy   TOTEN  =       -14.92515635 eV

  energy  without entropy=      -14.92391408  energy(sigma->0) =      -14.92453522

 reached required accuracy - stopping structural energy minimisation
 writing wavefunctions