 vasp.6.3.0 20Jan22 (build Feb 10 2022 15:15:41) complex

 executed on             LinuxIFC date 2023.09.27  11:20:49

 INCAR:
   ENCUT = 400
   ISMEAR = 0
   SIGMA = 0.05
   IBRION = 2
   ISIF = 4
   NSW = 100
   EDIFF = 1E-04
   EDIFFG = -0.01

 POTCAR:    PAW_PBE Cr 06Sep2000
|           W    W    AA    RRRRR   N    N  II  N    N   GGGG   !!!           |
|           W    W   A  A   R    R  NN   N  II  NN   N  G    G  !!!           |
|           W    W  A    A  R    R  N N  N  II  N N  N  G       !!!           |
|           W WW W  AAAAAA  RRRRR   N  N N  II  N  N N  G  GGG   !            |
|           WW  WW  A    A  R   R   N   NN  II  N   NN  G    G                |
|           W    W  A    A  R    R  N    N  II  N    N   GGGG   !!!           |
|     For optimal performance we recommend to set                             |
|       NCORE = 2 up to number-of-cores-per-socket                            |
|     This setting can greatly improve the performance of VASP for DFT.       |
|     The default, NCORE=1 might be grossly inefficient on modern             |
|     multi-core architectures or massively parallel machines. Do your        |
|     Unfortunately you need to use the default for GW and RPA                |
|     calculations (for HF NCORE is supported but not extensively tested      |
|     yet).                                                                   |

   TITEL  = PAW_PBE Cr 06Sep2000
   POMASS =   51.996; ZVAL   =    6.000    mass and valenz
   ENMAX  =  227.080; ENMIN  =  170.310 eV

  PAW_PBE Cr 06Sep2000                  :

 POSCAR:  Cr
  positions in direct lattice
 exchange correlation table for  LEXCH =        8
   RHO(1)=    0.500       N(1)  =     2000
   RHO(2)=  100.500       N(2)  =     4000

 ion  position               nearest neighbor table
   1  0.000  0.000  0.000-   2 2.53   2 2.53   2 2.53   2 2.53   2 2.53   2 2.53   2 2.53   2 2.53

   2  0.500  0.500  0.500-   1 2.53   1 2.53   1 2.53   1 2.53   1 2.53   1 2.53   1 2.53   1 2.53

  LATTYP: Found a simple cubic cell.
 ALAT       =     2.9205949196

  Lattice vectors:

 A1 = (   2.9205949196,   0.0000000000,   0.0000000000)
 A2 = (   0.0000000000,   2.9205949196,   0.0000000000)
 A3 = (   0.0000000000,   0.0000000000,   2.9205949196)

Analysis of symmetry for initial positions (statically):
 Subroutine PRICEL returns following result:

  LATTYP: Found a body centered cubic cell.
 ALAT       =     2.9205949196

[...]

   2 primitive cells build up your supercell.

 Routine SETGRP: Setting up the symmetry group for a
 simple cubic supercell.

 Subroutine GETGRP returns: Found 48 space group operations
 (whereof 48 operations were pure point group operations)
 out of a pool of 48 trial point group operations.

The static configuration has the point symmetry O_h .

Analysis of symmetry for dynamics (positions and initial velocities):
 Subroutine PRICEL returns following result:

  LATTYP: Found a body centered cubic cell.
 ALAT       =     2.9205949196

  Lattice vectors:

 A1 = (   1.4602974598,   1.4602974598,  -1.4602974598)
 A2 = (  -1.4602974598,   1.4602974598,   1.4602974598)
 A3 = (   1.4602974598,  -1.4602974598,   1.4602974598)

   2 primitive cells build up your supercell.

 Routine SETGRP: Setting up the symmetry group for a
 simple cubic supercell.

 Subroutine GETGRP returns: Found 48 space group operations
 (whereof 48 operations were pure point group operations)
 out of a pool of 48 trial point group operations.

The dynamic configuration has the point symmetry O_h .

 Subroutine INISYM returns: Found 48 space group operations
 (whereof 48 operations are pure point group operations),
 and found     2 'primitive' translations

                                     Primitive cell

  volume of cell :      12.4562

  direct lattice vectors                    reciprocal lattice vectors
     1.460297460  1.460297460 -1.460297460     0.342395994  0.342395994  0.000000000
    -1.460297460  1.460297460  1.460297460    -0.000000000  0.342395994  0.342395994
     1.460297460 -1.460297460  1.460297460     0.342395994  0.000000000  0.342395994

  length of vectors
     2.529309395  2.529309395  2.529309395     0.484221058  0.484221058  0.484221058

  position of ions in fractional coordinates (direct lattice)
     0.000000000  0.000000000  0.000000000

  ion indices of the primitive-cell ions
   primitive index   ion index
                 1           1

 KPOINTS: k-points

Automatic generation of k-mesh.
 Grid dimensions read from file:
 generate k-points for:   11   11   11

 Generating k-lattice:

  Cartesian coordinates                     Fractional coordinates (reciprocal lattice)
     0.031126909  0.000000000  0.000000000     0.090909091  0.000000000  0.000000000
     0.000000000  0.031126909  0.000000000     0.000000000  0.090909091  0.000000000
     0.000000000  0.000000000  0.031126909     0.000000000  0.000000000  0.090909091

  Length of vectors
     0.031126909  0.031126909  0.031126909

  Shift w.r.t. Gamma in fractional coordinates (k-lattice)
     0.000000000  0.000000000  0.000000000

 Subroutine IBZKPT returns following result:

 Found     56 irreducible k-points:

 Following reciprocal coordinates:
            Coordinates               Weight
  0.000000  0.000000  0.000000      1.000000
  0.090909  0.000000  0.000000      6.000000
  0.181818  0.000000  0.000000      6.000000
  0.272727  0.000000  0.000000      6.000000
  0.363636  0.000000  0.000000      6.000000
  0.454545  0.000000  0.000000      6.000000
  0.090909  0.090909  0.000000     12.000000
  0.181818  0.090909  0.000000     24.000000
  0.272727  0.090909  0.000000     24.000000
  0.363636  0.090909  0.000000     24.000000
  0.454545  0.090909  0.000000     24.000000
  0.181818  0.181818  0.000000     12.000000
  0.272727  0.181818  0.000000     24.000000
  0.363636  0.181818  0.000000     24.000000
  0.454545  0.181818  0.000000     24.000000
  0.272727  0.272727  0.000000     12.000000
  0.363636  0.272727  0.000000     24.000000
  0.454545  0.272727  0.000000     24.000000
  0.363636  0.363636  0.000000     12.000000
  0.454545  0.363636  0.000000     24.000000
  0.454545  0.454545  0.000000     12.000000
  0.090909  0.090909  0.090909      8.000000
  0.181818  0.090909  0.090909     24.000000
  0.272727  0.090909  0.090909     24.000000
  0.363636  0.090909  0.090909     24.000000
  0.454545  0.090909  0.090909     24.000000
  0.181818  0.181818  0.090909     24.000000
  0.272727  0.181818  0.090909     48.000000
  0.363636  0.181818  0.090909     48.000000
  0.454545  0.181818  0.090909     48.000000
  0.272727  0.272727  0.090909     24.000000
  0.363636  0.272727  0.090909     48.000000
  0.454545  0.272727  0.090909     48.000000
  0.363636  0.363636  0.090909     24.000000
  0.454545  0.363636  0.090909     48.000000
  0.454545  0.454545  0.090909     24.000000
  0.181818  0.181818  0.181818      8.000000
  0.272727  0.181818  0.181818     24.000000
  0.363636  0.181818  0.181818     24.000000
  0.454545  0.181818  0.181818     24.000000
  0.272727  0.272727  0.181818     24.000000
  0.363636  0.272727  0.181818     48.000000
  0.454545  0.272727  0.181818     48.000000
  0.363636  0.363636  0.181818     24.000000
  0.454545  0.363636  0.181818     48.000000
  0.454545  0.454545  0.181818     24.000000
  0.272727  0.272727  0.272727      8.000000
  0.363636  0.272727  0.272727     24.000000
  0.454545  0.272727  0.272727     24.000000
  0.363636  0.363636  0.272727     24.000000
  0.454545  0.363636  0.272727     48.000000
  0.454545  0.454545  0.272727     24.000000
  0.363636  0.363636  0.363636      8.000000
  0.454545  0.363636  0.363636     24.000000
  0.454545  0.454545  0.363636     24.000000
  0.454545  0.454545  0.454545      8.000000

 Following cartesian coordinates:
            Coordinates               Weight
  0.000000  0.000000  0.000000      1.000000
  0.032061  0.000000  0.000000      6.000000
  0.064121  0.000000  0.000000      6.000000
  0.096182  0.000000  0.000000      6.000000
  0.128243  0.000000  0.000000      6.000000
  0.160304  0.000000  0.000000      6.000000
  0.032061  0.032061  0.000000     12.000000
  0.064121  0.032061  0.000000     24.000000
  0.096182  0.032061  0.000000     24.000000
  0.128243  0.032061  0.000000     24.000000
  0.160304  0.032061  0.000000     24.000000
  0.064121  0.064121  0.000000     12.000000
  0.096182  0.064121  0.000000     24.000000
  0.128243  0.064121  0.000000     24.000000
  0.160304  0.064121  0.000000     24.000000
  0.096182  0.096182  0.000000     12.000000
  0.128243  0.096182  0.000000     24.000000
  0.160304  0.096182  0.000000     24.000000
  0.128243  0.128243  0.000000     12.000000
  0.160304  0.128243  0.000000     24.000000
  0.160304  0.160304  0.000000     12.000000
  0.032061  0.032061  0.032061      8.000000
  0.064121  0.032061  0.032061     24.000000
  0.096182  0.032061  0.032061     24.000000
  0.128243  0.032061  0.032061     24.000000
  0.160304  0.032061  0.032061     24.000000
  0.064121  0.064121  0.032061     24.000000
  0.096182  0.064121  0.032061     48.000000
  0.128243  0.064121  0.032061     48.000000
  0.160304  0.064121  0.032061     48.000000
  0.096182  0.096182  0.032061     24.000000
  0.128243  0.096182  0.032061     48.000000
  0.160304  0.096182  0.032061     48.000000
  0.128243  0.128243  0.032061     24.000000
  0.160304  0.128243  0.032061     48.000000
  0.160304  0.160304  0.032061     24.000000
  0.064121  0.064121  0.064121      8.000000
  0.096182  0.064121  0.064121     24.000000
  0.128243  0.064121  0.064121     24.000000
  0.160304  0.064121  0.064121     24.000000
  0.096182  0.096182  0.064121     24.000000
  0.128243  0.096182  0.064121     48.000000
  0.160304  0.096182  0.064121     48.000000
  0.128243  0.128243  0.064121     24.000000
  0.160304  0.128243  0.064121     48.000000
  0.160304  0.160304  0.064121     24.000000
  0.096182  0.096182  0.096182      8.000000
  0.128243  0.096182  0.096182     24.000000
  0.160304  0.096182  0.096182     24.000000
  0.128243  0.128243  0.096182     24.000000
  0.160304  0.128243  0.096182     48.000000
  0.160304  0.160304  0.096182     24.000000
  0.128243  0.128243  0.128243      8.000000
  0.160304  0.128243  0.128243     24.000000
  0.160304  0.160304  0.128243     24.000000
  0.160304  0.160304  0.160304      8.000000

 SYSTEM =  unknown system
 POSCAR =   Cr

 Startparameter for this run:
   NWRITE =      2    write-flag & timer
   PREC   = normal    normal or accurate (medium, high low for compatibility)
   ISTART =      0    job   : 0-new  1-cont  2-samecut
   ICHARG =      2    charge: 1-file 2-atom 10-const
   ISPIN  =      1    spin polarized calculation?
   LNONCOLLINEAR =      F non collinear calculations
   LSORBIT =      F    spin-orbit coupling
   INIWAV =      1    electr: 0-lowe 1-rand  2-diag
   LASPH  =      F    aspherical Exc in radial PAW
 Electronic Relaxation 1
   ENCUT  =  400.0 eV  29.40 Ry    5.42 a.u.   4.76  4.76  4.76*2*pi/ulx,y,z
   ENINI  =  400.0     initial cutoff
   ENAUG  =  402.1 eV  augmentation charge cutoff
   NELM   =     60;   NELMIN=  2; NELMDL= -5     # of ELM steps
[...]
   0.06412143  0.06412143  0.03206072       0.018
   0.09618215  0.06412143  0.03206072       0.036
   0.12824286  0.06412143  0.03206072       0.036
   0.16030358  0.06412143  0.03206072       0.036
   0.09618215  0.09618215  0.03206072       0.018
   0.12824286  0.09618215  0.03206072       0.036
   0.16030358  0.09618215  0.03206072       0.036
   0.12824286  0.12824286  0.03206072       0.018
   0.16030358  0.12824286  0.03206072       0.036
   0.16030358  0.16030358  0.03206072       0.018
   0.06412143  0.06412143  0.06412143       0.006
   0.09618215  0.06412143  0.06412143       0.018
   0.12824286  0.06412143  0.06412143       0.018
   0.16030358  0.06412143  0.06412143       0.018
   0.09618215  0.09618215  0.06412143       0.018
   0.12824286  0.09618215  0.06412143       0.036
   0.16030358  0.09618215  0.06412143       0.036
   0.12824286  0.12824286  0.06412143       0.018
   0.16030358  0.12824286  0.06412143       0.036
   0.16030358  0.16030358  0.06412143       0.018
   0.09618215  0.09618215  0.09618215       0.006
   0.12824286  0.09618215  0.09618215       0.018
   0.16030358  0.09618215  0.09618215       0.018
   0.12824286  0.12824286  0.09618215       0.018
   0.16030358  0.12824286  0.09618215       0.036
   0.16030358  0.16030358  0.09618215       0.018
   0.12824286  0.12824286  0.12824286       0.006
   0.16030358  0.12824286  0.12824286       0.018
   0.16030358  0.16030358  0.12824286       0.018
   0.16030358  0.16030358  0.16030358       0.006

 k-points in reciprocal lattice and weights: k-points
   0.00000000  0.00000000  0.00000000       0.001
   0.09090909  0.00000000  0.00000000       0.005
   0.18181818  0.00000000  0.00000000       0.005
   0.27272727  0.00000000  0.00000000       0.005
   0.36363636  0.00000000  0.00000000       0.005
   0.45454545  0.00000000  0.00000000       0.005
   0.09090909  0.09090909  0.00000000       0.009
   0.18181818  0.09090909  0.00000000       0.018
   0.27272727  0.09090909  0.00000000       0.018
   0.36363636  0.09090909  0.00000000       0.018
   0.45454545  0.09090909  0.00000000       0.018
   0.18181818  0.18181818  0.00000000       0.009
   0.27272727  0.18181818  0.00000000       0.018
   0.36363636  0.18181818  0.00000000       0.018
   0.45454545  0.18181818  0.00000000       0.018
   0.27272727  0.27272727  0.00000000       0.009
   0.36363636  0.27272727  0.00000000       0.018
   0.45454545  0.27272727  0.00000000       0.018
   0.36363636  0.36363636  0.00000000       0.009
   0.45454545  0.36363636  0.00000000       0.018
   0.45454545  0.45454545  0.00000000       0.009
   0.09090909  0.09090909  0.09090909       0.006
   0.18181818  0.09090909  0.09090909       0.018
   0.27272727  0.09090909  0.09090909       0.018
   0.36363636  0.09090909  0.09090909       0.018
   0.45454545  0.09090909  0.09090909       0.018
   0.18181818  0.18181818  0.09090909       0.018
   0.27272727  0.18181818  0.09090909       0.036
   0.36363636  0.18181818  0.09090909       0.036
   0.45454545  0.18181818  0.09090909       0.036
   0.27272727  0.27272727  0.09090909       0.018
   0.36363636  0.27272727  0.09090909       0.036
   0.45454545  0.27272727  0.09090909       0.036
   0.36363636  0.36363636  0.09090909       0.018
   0.45454545  0.36363636  0.09090909       0.036
   0.45454545  0.45454545  0.09090909       0.018
   0.18181818  0.18181818  0.18181818       0.006
   0.27272727  0.18181818  0.18181818       0.018
   0.36363636  0.18181818  0.18181818       0.018
   0.45454545  0.18181818  0.18181818       0.018
   0.27272727  0.27272727  0.18181818       0.018
   0.36363636  0.27272727  0.18181818       0.036
   0.45454545  0.27272727  0.18181818       0.036
   0.36363636  0.36363636  0.18181818       0.018
   0.45454545  0.36363636  0.18181818       0.036
   0.45454545  0.45454545  0.18181818       0.018
   0.27272727  0.27272727  0.27272727       0.006
   0.36363636  0.27272727  0.27272727       0.018
   0.45454545  0.27272727  0.27272727       0.018
   0.36363636  0.36363636  0.27272727       0.018
   0.45454545  0.36363636  0.27272727       0.036
   0.45454545  0.45454545  0.27272727       0.018
   0.36363636  0.36363636  0.36363636       0.006
   0.45454545  0.36363636  0.36363636       0.018
   0.45454545  0.45454545  0.36363636       0.018
   0.45454545  0.45454545  0.45454545       0.006

 position of ions in fractional coordinates (direct lattice)
   0.00000000  0.00000000  0.00000000
   0.50000000  0.50000000  0.50000000

 position of ions in cartesian coordinates  (Angst):
   0.00000000  0.00000000  0.00000000
   1.46029746  1.46029746  1.46029746

 k-point   1 :   0.0000 0.0000 0.0000  plane waves:     461
 k-point   2 :   0.0909 0.0000 0.0000  plane waves:     461
 k-point   3 :   0.1818 0.0000 0.0000  plane waves:     453
 k-point   4 :   0.2727 0.0000 0.0000  plane waves:     446
 k-point   5 :   0.3636 0.0000 0.0000  plane waves:     458
 k-point   6 :   0.4545 0.0000 0.0000  plane waves:     466
 k-point   7 :   0.0909 0.0909 0.0000  plane waves:     455
 k-point   8 :   0.1818 0.0909 0.0000  plane waves:     455
 k-point   9 :   0.2727 0.0909 0.0000  plane waves:     451
 k-point  10 :   0.3636 0.0909 0.0000  plane waves:     449
 k-point  11 :   0.4545 0.0909 0.0000  plane waves:     454
 k-point  12 :   0.1818 0.1818 0.0000  plane waves:     455
 k-point  13 :   0.2727 0.1818 0.0000  plane waves:     453
 k-point  14 :   0.3636 0.1818 0.0000  plane waves:     453
 k-point  15 :   0.4545 0.1818 0.0000  plane waves:     451
 k-point  16 :   0.2727 0.2727 0.0000  plane waves:     447
 k-point  17 :   0.3636 0.2727 0.0000  plane waves:     450
 k-point  18 :   0.4545 0.2727 0.0000  plane waves:     457
 k-point  19 :   0.3636 0.3636 0.0000  plane waves:     451
 k-point  20 :   0.4545 0.3636 0.0000  plane waves:     453
 k-point  21 :   0.4545 0.4545 0.0000  plane waves:     452
 k-point  22 :   0.0909 0.0909 0.0909  plane waves:     458
 k-point  23 :   0.1818 0.0909 0.0909  plane waves:     451
 k-point  24 :   0.2727 0.0909 0.0909  plane waves:     447
 k-point  25 :   0.3636 0.0909 0.0909  plane waves:     449
 k-point  26 :   0.4545 0.0909 0.0909  plane waves:     457
 k-point  27 :   0.1818 0.1818 0.0909  plane waves:     452
 k-point  28 :   0.2727 0.1818 0.0909  plane waves:     451
 k-point  29 :   0.3636 0.1818 0.0909  plane waves:     449
 k-point  30 :   0.4545 0.1818 0.0909  plane waves:     453
 k-point  31 :   0.2727 0.2727 0.0909  plane waves:     452
 k-point  32 :   0.3636 0.2727 0.0909  plane waves:     449
 k-point  33 :   0.4545 0.2727 0.0909  plane waves:     456
 k-point  34 :   0.3636 0.3636 0.0909  plane waves:     452
 k-point  35 :   0.4545 0.3636 0.0909  plane waves:     455
 k-point  36 :   0.4545 0.4545 0.0909  plane waves:     450
 k-point  37 :   0.1818 0.1818 0.1818  plane waves:     452
 k-point  38 :   0.2727 0.1818 0.1818  plane waves:     449
 k-point  39 :   0.3636 0.1818 0.1818  plane waves:     453
 k-point  40 :   0.4545 0.1818 0.1818  plane waves:     451
 k-point  41 :   0.2727 0.2727 0.1818  plane waves:     449
 k-point  42 :   0.3636 0.2727 0.1818  plane waves:     450
 k-point  43 :   0.4545 0.2727 0.1818  plane waves:     454
 k-point  44 :   0.3636 0.3636 0.1818  plane waves:     453
 k-point  45 :   0.4545 0.3636 0.1818  plane waves:     456
 k-point  46 :   0.4545 0.4545 0.1818  plane waves:     451
 k-point  47 :   0.2727 0.2727 0.2727  plane waves:     447
 k-point  48 :   0.3636 0.2727 0.2727  plane waves:     456
 k-point  49 :   0.4545 0.2727 0.2727  plane waves:     449
 k-point  50 :   0.3636 0.3636 0.2727  plane waves:     455
 k-point  51 :   0.4545 0.3636 0.2727  plane waves:     450
 k-point  52 :   0.4545 0.4545 0.2727  plane waves:     449
 k-point  53 :   0.3636 0.3636 0.3636  plane waves:     453
 k-point  54 :   0.4545 0.3636 0.3636  plane waves:     456
 k-point  55 :   0.4545 0.4545 0.3636  plane waves:     452
 k-point  56 :   0.4545 0.4545 0.4545  plane waves:     456

 maximum and minimum number of plane-waves per node :       466      446

 maximum number of plane-waves:       466
 maximum index in each direction:
   IXMAX=    4   IYMAX=    4   IZMAX=    4
   IXMIN=   -5   IYMIN=   -5   IZMIN=   -5

 serial   3D FFT for wavefunctions
 parallel 3D FFT for charge:
    minimum data exchange during FFTs selected (reduces bandwidth)

 Broyden mixing: mesh for mixing (old mesh)
   NGX =  9   NGY =  9   NGZ =  9
  (NGX  = 28   NGY  = 28   NGZ  = 28)
  gives a total of    729 points

 initial charge density was supplied:
 charge density of overlapping atoms calculated
 number of electron      12.0000000 magnetization
 keeping initial charge density in first step

 Maximum index for augmentation-charges          698 (set IRDMAX)

 First call to EWALD:  gamma=   0.607
 Maximum number of real-space cells 3x 3x 3
 Maximum number of reciprocal cells 3x 3x 3

--------------------------------------- Iteration      1(   1)  ---------------------------------------

 eigenvalue-minimisations  :  2688
 total energy-change (2. order) :-0.8993612E+01  (-0.4870913E+03)
 number of electron      12.0000000 magnetization
 augmentation part       12.0000000 magnetization

 Free energy of the ion-electron system (eV)
  alpha Z        PSCENC =        66.36108239
  Ewald energy   TEWEN  =      -645.94741789
  -Hartree energ DENC   =       -68.87822157
  -exchange      EXHF   =         0.00000000
  -V(xc)+E(xc)   XCENC  =       -38.81694933
  PAW double counting   =       555.30997384     -515.76403743
  entropy T*S    EENTRO =        -0.00070002
  eigenvalues    EBANDS =        84.97439011
  atomic energy  EATOM  =       553.76826754
  Solvation  Ediel_sol  =         0.00000000
  free energy    TOTEN  =        -8.99361236 eV

  energy without entropy =       -8.99291234  energy(sigma->0) =       -8.99326235

[...]

 Broyden mixing:
  rms(total) = 0.16771E+01    rms(broyden)= 0.16769E+01
  rms(prec ) = 0.36653E+01
  weight for this iteration     100.00

[...]

 eigenvalue-minimisations  :  2832
 total energy-change (2. order) : 0.3396051E+01  (-0.1792814E+01)
 number of electron      11.9999976 magnetization
 augmentation part        4.9595730 magnetization

[...]

 eigenvalues of (default mixing * dielectric matrix)
  average eigenvalue GAMMA=   0.9075
  0.9075

[...]

 eigenvalue-minimisations  :  2904
 total energy-change (2. order) : 0.2663942E-01  (-0.1035599E-02)
 number of electron      11.9999976 magnetization
 augmentation part        4.9854788 magnetization

 Broyden mixing:
  rms(total) = 0.99325E-02    rms(broyden)= 0.99238E-02
  rms(prec ) = 0.18281E-01
  weight for this iteration     100.00

 eigenvalues of (default mixing * dielectric matrix)
  average eigenvalue GAMMA=   1.6776
  2.6711  1.0186  1.3431

[...]

--------------------------------------- Iteration      1(   9)  ---------------------------------------

 eigenvalue-minimisations  :  3816
 total energy-change (2. order) :-0.9451636E-04  (-0.4779063E-04)
 number of electron      11.9999976 magnetization
 augmentation part        4.9854788 magnetization

 Free energy of the ion-electron system (eV)
  alpha Z        PSCENC =        66.36108239
  Ewald energy   TEWEN  =      -645.94741789
  -Hartree energ DENC   =       -47.41516396
  -exchange      EXHF   =         0.00000000
  -V(xc)+E(xc)   XCENC  =       -39.25475486
  PAW double counting   =       755.80044619     -716.11408620
  entropy T*S    EENTRO =        -0.00243607
  eigenvalues    EBANDS =        53.96658104
  atomic energy  EATOM  =       553.76826754
  Solvation  Ediel_sol  =         0.00000000
  free energy    TOTEN  =       -18.83748183 eV

  energy without entropy =      -18.83504575  energy(sigma->0) =      -18.83626379

 average (electrostatic) potential at core
  the test charge radii are     1.1394
  (the norm of the test charge is              1.0000)
       1 -42.2944       2 -42.2944

 E-fermi :   6.7560     XC(G=0): -12.7758     alpha+bet :-15.2072

 Fermi energy:         6.7559625546

 k-point     1 :       0.0000    0.0000    0.0000
  band No.  band energies     occupation
      1      -0.7426      2.00000
      2       2.9070      2.00000
      3       2.9070      2.00000
      4       5.9462      2.00000
      5       5.9462      2.00000
      6       5.9462      2.00000
      7       7.7622      0.00000
      8       7.7622      0.00000
      9       8.9401      0.00000
     10       8.9401      0.00000
     11       8.9401      0.00000
     12      16.7445      0.00000
     13      16.7445      0.00000
     14      16.7445      0.00000
     15      22.9874      0.00000
     16      22.9874      0.00000
     17      28.6018      0.00000
     18      29.0981      0.00000
     19      29.0981      0.00000
     20      29.0981      0.00000
     21      35.1074      0.00000
     22      35.1074      0.00000
     23      38.4884      0.00000
     24      38.4884      0.00000

[...]

 k-point    56 :       0.4545    0.4545    0.4545
  band No.  band energies     occupation
      1       4.3804      2.00000
      2       4.5390      2.00000
      3       4.5390      2.00000
      4       4.7642      2.00000
      5       4.7642      2.00000
      6       4.8086      2.00000
      7       8.0898      0.00000
      8       8.0898      0.00000
      9       8.0900      0.00000
     10       8.0900      0.00000
     11      14.5895      0.00000
     12      15.5997      0.00000
     13      15.5997      0.00000
     14      17.1911      0.00000
     15      17.1911      0.00000
     16      17.2800      0.00000
     17      18.8318      0.00000
     18      19.3083      0.00000
     19      39.9294      0.00000
     20      39.9294      0.00000
     21      39.9677      0.00000
     22      41.6650      0.00000
     23      41.6650      0.00000
     24      43.0975      0.00000

 soft charge-density along one line, spin component           1
         0         1         2         3         4         5         6         7         8         9
 total charge-density along one line

------------------------ aborting loop because EDIFF is reached ----------------------------------------

  FORCE on cell =-STRESS in cart. coord.  units (eV):
  Direction    XX          YY          ZZ          XY          YZ          ZX
  Alpha Z    66.36108    66.36108    66.36108
  Ewald    -215.31579  -215.31579  -215.31579    -0.00000     0.00000     0.00000
  Hartree    15.84691    15.84691    15.84691    -0.00000    -0.00000    -0.00000
  E(xc)     -51.89699   -51.89699   -51.89699    -0.00000    -0.00000     0.00000
  Local      44.99792    44.99792    44.99792    -0.00000    -0.00000     0.00000
  n-local   -24.00753   -18.15010   -13.27754     2.64085    -0.72666     0.42398
  augment    55.74800    55.74800    55.74800     0.00000     0.00000     0.00000
  Kinetic    97.83092    98.31412   103.01701     4.60413    -1.44138     0.83868
  Fock        0.00000     0.00000     0.00000     0.00000     0.00000     0.00000
  Total      -3.01658    -3.01658    -3.01658    -0.00000    -0.00000    -0.00000
  in kB    -194.00450  -194.00450  -194.00450    -0.00000    -0.00000    -0.00000

 VOLUME and BASIS-vectors are now :
  energy-cutoff  :      400.00
  volume of cell :       24.91
      direct lattice vectors                 reciprocal lattice vectors
     2.920594920  0.000000000  0.000000000     0.342395994  0.000000000  0.000000000
     0.000000000  2.920594920  0.000000000     0.000000000  0.342395994  0.000000000
     0.000000000  0.000000000  2.920594920     0.000000000  0.000000000  0.342395994

  length of vectors
     2.920594920  2.920594920  2.920594920     0.342395994  0.342395994  0.342395994

 FORCES acting on ions
    electron-ion (+dipol)            ewald-force                    non-local-force                 convergence-correction
   -.789E-14 -.564E-14 -.103E-13   -.108E-14 -.173E-14 -.110E-14   0.120E-22 0.360E-23 -.275E-24   -.968E-16 -.355E-14 -.208E-14
   0.404E-13 -.217E-12 0.176E-13   0.275E-15 0.169E-14 0.162E-14   0.224E-23 0.198E-23 0.653E-23   -.735E-14 0.348E-14 -.574E-14
   0.325E-13 -.222E-12 0.734E-14   -.803E-15 -.372E-16 0.514E-15   0.143E-22 0.558E-23 0.626E-23   -.745E-14 -.732E-16 -.782E-14

 POSITION                                       TOTAL-FORCE (eV/Angst)
      0.00000      0.00000      0.00000        -0.000000     -0.000000     -0.000000
      1.46030      1.46030      1.46030         0.000000      0.000000      0.000000
    total drift:                                0.000000     -0.000000      0.000000

  FREE ENERGIE OF THE ION-ELECTRON SYSTEM (eV)
  free  energy   TOTEN  =       -18.83748183 eV

  energy  without entropy=      -18.83504575  energy(sigma->0) =      -18.83626379

 reached required accuracy - stopping structural energy minimisation
 writing wavefunctions