 vasp.6.3.0 20Jan22 (build Feb 10 2022 15:15:41) complex

 executed on             LinuxIFC date 2023.09.10  16:15:06

 INCAR:
   ENCUT = 360
   ISMEAR = 0
   SIGMA = 0.05
   IBRION = 2
   ISIF = 4
   NSW = 100
   EDIFF = 1E-05
   EDIFFG = -0.01

 POTCAR:    PAW_PBE Cd 06Sep2000
 POTCAR:    PAW_PBE Te 08Apr2002
|           W    W    AA    RRRRR   N    N  II  N    N   GGGG   !!!           |
|           W    W   A  A   R    R  NN   N  II  NN   N  G    G  !!!           |
|           W    W  A    A  R    R  N N  N  II  N N  N  G       !!!           |
|           W WW W  AAAAAA  RRRRR   N  N N  II  N  N N  G  GGG   !            |
|           WW  WW  A    A  R   R   N   NN  II  N   NN  G    G                |
|           W    W  A    A  R    R  N    N  II  N    N   GGGG   !!!           |
|     For optimal performance we recommend to set                             |
|       NCORE = 2 up to number-of-cores-per-socket                            |
|     This setting can greatly improve the performance of VASP for DFT.       |
|     The default, NCORE=1 might be grossly inefficient on modern             |
|     multi-core architectures or massively parallel machines. Do your        |
|     Unfortunately you need to use the default for GW and RPA                |
|     calculations (for HF NCORE is supported but not extensively tested      |
|     yet).                                                                   |

   TITEL  = PAW_PBE Cd 06Sep2000
   POMASS =  112.411; ZVAL   =   12.000    mass and valenz
   ENMAX  =  274.336; ENMIN  =  205.752 eV

   TITEL  = PAW_PBE Te 08Apr2002
   POMASS =  127.600; ZVAL   =    6.000    mass and valenz
   ENMAX  =  174.982; ENMIN  =  131.236 eV

  PAW_PBE Cd 06Sep2000                  :
  PAW_PBE Te 08Apr2002                  :

 POSCAR: Cd4 Te4
  positions in direct lattice
 exchange correlation table for  LEXCH =        8
   RHO(1)=    0.500       N(1)  =     2000
   RHO(2)=  100.500       N(2)  =     4000

 ion  position               nearest neighbor table
   1  0.000  0.000  0.000-   5 2.96   6 2.96   7 2.96   8 2.96
   2  0.000  0.500  0.500-   5 2.96   6 2.96   7 2.96   8 2.96
   3  0.500  0.000  0.500-   5 2.96   6 2.96   7 2.96   8 2.96
   4  0.500  0.500  0.000-   5 2.96   6 2.96   7 2.96   8 2.96
   5  0.250  0.250  0.250-   1 2.96   2 2.96   3 2.96   4 2.96
   6  0.250  0.750  0.750-   1 2.96   2 2.96   3 2.96   4 2.96
   7  0.750  0.250  0.750-   1 2.96   2 2.96   3 2.96   4 2.96
   8  0.750  0.750  0.250-   1 2.96   2 2.96   3 2.96   4 2.96

  LATTYP: Found a simple cubic cell.
 ALAT       =     6.8279394465

  Lattice vectors:

 A1 = (   6.8279394465,   0.0000000000,   0.0000000000)
 A2 = (   0.0000000000,   6.8279394465,   0.0000000000)
 A3 = (   0.0000000000,   0.0000000000,   6.8279394465)

Analysis of symmetry for initial positions (statically):
 Subroutine PRICEL returns following result:

  LATTYP: Found a face centered cubic cell.
 ALAT       =     6.8279394465

[...]

   4 primitive cells build up your supercell.

 Routine SETGRP: Setting up the symmetry group for a
 simple cubic supercell.

 Subroutine GETGRP returns: Found 24 space group operations
 (whereof 24 operations were pure point group operations)
 out of a pool of 48 trial point group operations.

The static configuration has the point symmetry T_d .

Analysis of symmetry for dynamics (positions and initial velocities):
 Subroutine PRICEL returns following result:

  LATTYP: Found a face centered cubic cell.
 ALAT       =     6.8279394465

  Lattice vectors:

 A1 = (   3.4139697233,  -3.4139697233,   0.0000000000)
 A2 = (   3.4139697233,   0.0000000000,   3.4139697233)
 A3 = (   0.0000000000,  -3.4139697233,   3.4139697233)

   4 primitive cells build up your supercell.

 Routine SETGRP: Setting up the symmetry group for a
 simple cubic supercell.

 Subroutine GETGRP returns: Found 24 space group operations
 (whereof 24 operations were pure point group operations)
 out of a pool of 48 trial point group operations.

The dynamic configuration has the point symmetry T_d .

 Subroutine INISYM returns: Found 24 space group operations
 (whereof 24 operations are pure point group operations),
 and found     4 'primitive' translations

                                     Primitive cell

  volume of cell :      79.5809

  direct lattice vectors                    reciprocal lattice vectors
     3.413969723 -3.413969723  0.000000000     0.146457069 -0.146457069 -0.146457069
     3.413969723  0.000000000  3.413969723     0.146457069  0.146457069  0.146457069
     0.000000000 -3.413969723  3.413969723    -0.146457069 -0.146457069  0.146457069

  length of vectors
     4.828082284  4.828082284  4.828082284     0.253671085  0.253671085  0.253671085

  position of ions in fractional coordinates (direct lattice)
     0.000000000  0.000000000  0.000000000
     0.750000000  0.750000000  0.750000000

  ion indices of the primitive-cell ions
   primitive index   ion index
                 1           1
                 2           5

 KPOINTS: k-points

Automatic generation of k-mesh.
 Grid dimensions read from file:
 generate k-points for:    5    5    5

 Generating k-lattice:

  Cartesian coordinates                     Fractional coordinates (reciprocal lattice)
     0.029291414  0.000000000  0.000000000     0.200000000  0.000000000  0.000000000
     0.000000000  0.029291414  0.000000000     0.000000000  0.200000000  0.000000000
     0.000000000  0.000000000  0.029291414     0.000000000  0.000000000  0.200000000

  Length of vectors
     0.029291414  0.029291414  0.029291414

  Shift w.r.t. Gamma in fractional coordinates (k-lattice)
     0.000000000  0.000000000  0.000000000

 Subroutine IBZKPT returns following result:

 Found     10 irreducible k-points:

 Following reciprocal coordinates:
            Coordinates               Weight
  0.000000  0.000000  0.000000      1.000000
  0.200000  0.000000  0.000000      6.000000
  0.400000  0.000000  0.000000      6.000000
  0.200000  0.200000  0.000000     12.000000
  0.400000  0.200000  0.000000     24.000000
  0.400000  0.400000  0.000000     12.000000
  0.200000  0.200000  0.200000      8.000000
  0.400000  0.200000  0.200000     24.000000
  0.400000  0.400000  0.200000     24.000000
  0.400000  0.400000  0.400000      8.000000

 Following cartesian coordinates:
            Coordinates               Weight
  0.000000  0.000000  0.000000      1.000000
  0.030170  0.000000  0.000000      6.000000
  0.060340  0.000000  0.000000      6.000000
  0.030170  0.030170  0.000000     12.000000
  0.060340  0.030170  0.000000     24.000000
  0.060340  0.060340  0.000000     12.000000
  0.030170  0.030170  0.030170      8.000000
  0.060340  0.030170  0.030170     24.000000
  0.060340  0.060340  0.030170     24.000000
  0.060340  0.060340  0.060340      8.000000

 SYSTEM =  unknown system
 POSCAR =  Cd4 Te4

 Startparameter for this run:
   NWRITE =      2    write-flag & timer
   PREC   = normal    normal or accurate (medium, high low for compatibility)
   ISTART =      0    job   : 0-new  1-cont  2-samecut
   ICHARG =      2    charge: 1-file 2-atom 10-const
   ISPIN  =      1    spin polarized calculation?
   LNONCOLLINEAR =      F non collinear calculations
   LSORBIT =      F    spin-orbit coupling
   INIWAV =      1    electr: 0-lowe 1-rand  2-diag
   LASPH  =      F    aspherical Exc in radial PAW
 Electronic Relaxation 1
   ENCUT  =  360.0 eV  26.46 Ry    5.14 a.u.  10.56 10.56 10.56*2*pi/ulx,y,z
   ENINI  =  360.0     initial cutoff
   ENAUG  =  456.1 eV  augmentation charge cutoff
   NELM   =     60;   NELMIN=  2; NELMDL= -5     # of ELM steps
   EDIFF  = 0.1E-04   stopping-criterion for ELM
   LREAL  =      F    real-space projection
   NLSPLINE    = F    spline interpolate recip. space projectors
   LCOMPAT=      F    compatible to vasp.4.4
   GGA_COMPAT  = T    GGA compatible to vasp.4.4-vasp.4.6
   LMAXPAW     = -100 max onsite density
   LMAXMIX     =    2 max onsite mixed and CHGCAR
   VOSKOWN=      0    Vosko Wilk Nusair interpolation
   ROPT   =    0.00000   0.00000
 Ionic relaxation
   EDIFFG = -.1E-01   stopping-criterion for IOM
   NSW    =    100    number of steps for IOM
   NBLOCK =      1;   KBLOCK =    100    inner block; outer block
   IBRION =      2    ionic relax: 0-MD 1-quasi-New 2-CG
   NFREE  =      1    steps in history (QN), initial steepest desc. (CG)
   ISIF   =      4    stress and relaxation
   IWAVPR =     11    prediction:  0-non 1-charg 2-wave 3-comb
   ISYM   =      2    0-nonsym 1-usesym 2-fastsym
   LCORR  =      T    Harris-Foulkes like correction to forces

   POTIM  = 0.5000    time-step for ionic-motion
   TEIN   =    0.0    initial temperature
   TEBEG  =    0.0;   TEEND  =   0.0 temperature during run
   SMASS  =  -3.00    Nose mass-parameter (am)
   estimated Nose-frequenzy (Omega)   =  0.10E-29 period in steps = 0.13E+47 mass=  -0.107E-26a.u.
   SCALEE = 1.0000    scale energy and forces
   NPACO  =    256;   APACO  = 10.0  distance and # of slots for P.C.
   PSTRESS=    0.0 pullay stress

  Mass of Ions in am
   POMASS = 112.41127.60
  Ionic Valenz
   ZVAL   =  12.00  6.00
  Atomic Wigner-Seitz radii
  virtual crystal weights
   VCA    =   1.00  1.00
   NELECT =      72.0000    total number of electrons
   NUPDOWN=      -1.0000    fix difference up-down

 DOS related values:
   EMIN   =  10.00;   EMAX   =-10.00  energy-range for DOS
   EFERMI =   0.00
   ISMEAR =     0;   SIGMA  =   0.05  broadening in eV -4-tet -1-fermi 0-gaus

 Electronic relaxation 2 (details)
   IALGO  =     38    algorithm
   LDIAG  =      T    sub-space diagonalisation (order eigenvalues)
   LSUBROT=      F    optimize rotation matrix (better conditioning)
   TURBO    =      0    0=normal 1=particle mesh
   IRESTART =      0    0=no restart 2=restart with 2 vectors
   NREBOOT  =      0    no. of reboots
   NMIN     =      0    reboot dimension
   EREF     =   0.00    reference energy to select bands
   IMIX   =      4    mixing-type and parameters
     AMIX     =   0.40;   BMIX     =  1.00
     AMIX_MAG =   1.60;   BMIX_MAG =  1.00
     AMIN     =   0.10
     WC   =   100.;   INIMIX=   1;  MIXPRE=   1;  MAXMIX= -45

 Intra band minimization:
   WEIMIN = 0.0010     energy-eigenvalue tresh-hold
   EBREAK =  0.52E-07  absolut break condition
   DEPER  =   0.30     relativ break condition

   TIME   =   0.40     timestep for ELM

  volume/ion in A,a.u.               =      39.79       268.52
  Fermi-wavevector in a.u.,A,eV,Ry     =   0.997461  1.884928 13.536828  0.994929
  Thomas-Fermi vector in A             =   2.129619

 Write flags
   LWAVE        =      T    write WAVECAR
   LDOWNSAMPLE  =      F    k-point downsampling of WAVECAR
   LCHARG       =      T    write CHGCAR
   LVTOT        =      F    write LOCPOT, total local potential
   LVHAR        =      F    write LOCPOT, Hartree potential only
   LELF         =      F    write electronic localiz. function (ELF)
   LORBIT       =      0    0 simple, 1 ext, 2 COOP (PROOUT), +10 PAW based schemes

 Dipole corrections
   LMONO  =      F    monopole corrections only (constant potential shift)
   LDIPOL =      F    correct potential (dipole corrections)
[...]
   GGA     =    --    GGA type
   VOSKOWN =     0    Vosko Wilk Nusair interpolation
   LHFCALC =     F    Hartree Fock is set to
   LHFONE  =     F    Hartree Fock one center treatment
   AEXX    =    0.0000 exact exchange contribution

 Linear response parameters
   LEPSILON=     F    determine dielectric tensor
   LRPA    =     F    only Hartree local field effects (RPA)
   LNABLA  =     F    use nabla operator in PAW spheres
   LVEL    =     F    velocity operator in full k-point grid
   CSHIFT  =0.1000    complex shift for real part using Kramers Kronig
   OMEGAMAX=  -1.0    maximum frequency
   DEG_THRESHOLD= 0.2000000E-02 threshold for treating states as degnerate
   RTIME   =   -0.100 relaxation time in fs
  (WPLASMAI=    0.000 imaginary part of plasma frequency in eV, 0.658/RTIME)
   DFIELD  = 0.0000000 0.0000000 0.0000000 field for delta impulse in time

  Optional k-point grid parameters
   LKPOINTS_OPT  =     F    use optional k-point grid
   KPOINTS_OPT_MODE=     1    mode for optional k-point grid

 Orbital magnetization related:
   ORBITALMAG=     F  switch on orbital magnetization
   LCHIMAG   =     F  perturbation theory with respect to B field
   DQ        =  0.001000  dq finite difference perturbation B field
   LLRAUG    =     F  two centre corrections for induced B field

 conjugate gradient relaxation of ions
 charge density and potential will be updated during run
 non-spin polarized calculation
 Variant of blocked Davidson
 Davidson routine will perform the subspace rotation
 perform sub-space diagonalisation
    after iterative eigenvector-optimisation
 modified Broyden-mixing scheme, WC =      100.0
 initial mixing is a Kerker type mixing with AMIX =  0.4000 and BMIX =      1.0000
 Hartree-type preconditioning will be used
 using additional bands           12
 reciprocal scheme for non local part
 use partial core corrections
 calculate Harris-corrections to forces
   (improved forces if not selfconsistent)
 use gradient corrections
 use of overlap-Matrix (Vanderbilt PP)
 Gauss-broadening in eV      SIGMA  =   0.05

  energy-cutoff  :      360.00
  volume of cell :      318.32
      direct lattice vectors                 reciprocal lattice vectors
     6.827939447  0.000000000  0.000000000     0.146457069  0.000000000  0.000000000
     0.000000000  6.827939447  0.000000000     0.000000000  0.146457069  0.000000000
     0.000000000  0.000000000  6.827939447     0.000000000  0.000000000  0.146457069

[...]

 k-points in units of 2pi/SCALE and weight: k-points
   0.00000000  0.00000000  0.00000000       0.008
   0.03017016  0.00000000  0.00000000       0.048
   0.06034031  0.00000000  0.00000000       0.048
   0.03017016  0.03017016  0.00000000       0.096
   0.06034031  0.03017016  0.00000000       0.192
   0.06034031  0.06034031  0.00000000       0.096
   0.03017016  0.03017016  0.03017016       0.064
   0.06034031  0.03017016  0.03017016       0.192
   0.06034031  0.06034031  0.03017016       0.192
   0.06034031  0.06034031  0.06034031       0.064

 k-points in reciprocal lattice and weights: k-points
   0.00000000  0.00000000  0.00000000       0.008
   0.20000000  0.00000000  0.00000000       0.048
   0.40000000  0.00000000  0.00000000       0.048
   0.20000000  0.20000000  0.00000000       0.096
   0.40000000  0.20000000  0.00000000       0.192
   0.40000000  0.40000000  0.00000000       0.096
   0.20000000  0.20000000  0.20000000       0.064
   0.40000000  0.20000000  0.20000000       0.192
   0.40000000  0.40000000  0.20000000       0.192
   0.40000000  0.40000000  0.40000000       0.064

 position of ions in fractional coordinates (direct lattice)
   0.00000000  0.00000000  0.00000000
   0.00000000  0.50000000  0.50000000
   0.50000000  0.00000000  0.50000000
   0.50000000  0.50000000  0.00000000
   0.25000000  0.25000000  0.25000000
   0.25000000  0.75000000  0.75000000
   0.75000000  0.25000000  0.75000000
   0.75000000  0.75000000  0.25000000

 position of ions in cartesian coordinates  (Angst):
   0.00000000  0.00000000  0.00000000
   0.00000000  3.41396972  3.41396972
   3.41396972  0.00000000  3.41396972
   3.41396972  3.41396972  0.00000000
   1.70698486  1.70698486  1.70698486
   1.70698486  5.12095458  5.12095458
   5.12095458  1.70698486  5.12095458
   5.12095458  5.12095458  1.70698486

 k-point   1 :   0.0000 0.0000 0.0000  plane waves:    4945
 k-point   2 :   0.2000 0.0000 0.0000  plane waves:    4945
 k-point   3 :   0.4000 0.0000 0.0000  plane waves:    4973
 k-point   4 :   0.2000 0.2000 0.0000  plane waves:    4955
 k-point   5 :   0.4000 0.2000 0.0000  plane waves:    4932
 k-point   6 :   0.4000 0.4000 0.0000  plane waves:    4917
 k-point   7 :   0.2000 0.2000 0.2000  plane waves:    4920
 k-point   8 :   0.4000 0.2000 0.2000  plane waves:    4951
 k-point   9 :   0.4000 0.4000 0.2000  plane waves:    4951
 k-point  10 :   0.4000 0.4000 0.4000  plane waves:    4902

 maximum and minimum number of plane-waves per node :      4973     4902

 maximum number of plane-waves:      4973
 maximum index in each direction:
   IXMAX=   10   IYMAX=   10   IZMAX=   10
   IXMIN=  -10   IYMIN=  -10   IZMIN=  -10

 serial   3D FFT for wavefunctions
 parallel 3D FFT for charge:
    minimum data exchange during FFTs selected (reduces bandwidth)

 Broyden mixing: mesh for mixing (old mesh)
   NGX = 21   NGY = 21   NGZ = 21
  (NGX  = 64   NGY  = 64   NGZ  = 64)
  gives a total of   9261 points

 initial charge density was supplied:
 charge density of overlapping atoms calculated
 number of electron      72.0000000 magnetization
 keeping initial charge density in first step

 Maximum index for augmentation-charges          385 (set IRDMAX)

 First call to EWALD:  gamma=   0.260
 Maximum number of real-space cells 3x 3x 3
 Maximum number of reciprocal cells 3x 3x 3

--------------------------------------- Iteration      1(   1)  ---------------------------------------

 eigenvalue-minimisations  :   960
 total energy-change (2. order) : 0.3381128E+03  (-0.2675356E+04)
 number of electron      72.0000000 magnetization
 augmentation part       72.0000000 magnetization

 Free energy of the ion-electron system (eV)
  alpha Z        PSCENC =       171.76002793
  Ewald energy   TEWEN  =     -3968.00743935
  -Hartree energ DENC   =     -2159.87049930
  -exchange      EXHF   =         0.00000000
  -V(xc)+E(xc)   XCENC  =       -92.67029508
  PAW double counting   =      5617.72092748    -5328.65891765
  entropy T*S    EENTRO =        -0.00102827
  eigenvalues    EBANDS =        32.20952853
  atomic energy  EATOM  =      6065.63052842
  Solvation  Ediel_sol  =         0.00000000
  free energy    TOTEN  =       338.11283271 eV

  energy without entropy =      338.11386098  energy(sigma->0) =      338.11334685

[...]

 eigenvalue-minimisations  :  1200
 total energy-change (2. order) :-0.3460268E+03  (-0.3422131E+03)
 number of electron      72.0000000 magnetization
 augmentation part       72.0000000 magnetization

[...]

 Broyden mixing:
  rms(total) = 0.84826E+00    rms(broyden)= 0.84818E+00
  rms(prec ) = 0.11382E+01
  weight for this iteration     100.00

[...]

 eigenvalues of (default mixing * dielectric matrix)
  average eigenvalue GAMMA=   1.6950
  1.6950

[...]

 eigenvalue-minimisations  :  1176
 total energy-change (2. order) :-0.2321391E-03  (-0.5296684E-04)
 number of electron      72.0000293 magnetization
 augmentation part       18.3833659 magnetization

 Broyden mixing:
  rms(total) = 0.58083E-02    rms(broyden)= 0.58083E-02
  rms(prec ) = 0.60865E-02
  weight for this iteration     100.00

 eigenvalues of (default mixing * dielectric matrix)
  average eigenvalue GAMMA=   1.6147
  3.2394  2.5432  1.3557  1.1062  1.1062  0.3373

[...]

--------------------------------------- Iteration      1(  12)  ---------------------------------------

 eigenvalue-minimisations  :  1008
 total energy-change (2. order) : 0.1787279E-05  (-0.1181787E-05)
 number of electron      72.0000293 magnetization
 augmentation part       18.3833659 magnetization

 Free energy of the ion-electron system (eV)
  alpha Z        PSCENC =       171.76002793
  Ewald energy   TEWEN  =     -3968.00743935
  -Hartree energ DENC   =     -2133.93012762
  -exchange      EXHF   =         0.00000000
  -V(xc)+E(xc)   XCENC  =       -92.40303925
  PAW double counting   =      6510.53710881    -6217.65506076
  entropy T*S    EENTRO =        -0.00000004
  eigenvalues    EBANDS =      -354.92857267
  atomic energy  EATOM  =      6065.63052842
  Solvation  Ediel_sol  =         0.00000000
  free energy    TOTEN  =       -18.99657453 eV

  energy without entropy =      -18.99657448  energy(sigma->0) =      -18.99657450

 average (electrostatic) potential at core
  the test charge radii are     1.0698  1.1897
  (the norm of the test charge is              1.0000)
       1 -40.0546       2 -40.0546       3 -40.0546       4 -40.0546       5 -92.3928
       6 -92.3928       7 -92.3928       8 -92.3928

 E-fermi :   1.2212     XC(G=0):  -7.9114     alpha+bet : -6.3527

 Fermi energy:         1.2212088457

 k-point     1 :       0.0000    0.0000    0.0000
  band No.  band energies     occupation
      1      -9.3443      2.00000
      2      -8.9958      2.00000
      3      -8.9958      2.00000
      4      -8.9958      2.00000
      5      -6.7980      2.00000
      6      -6.7980      2.00000
      7      -6.7980      2.00000
      8      -6.6987      2.00000
      9      -6.6987      2.00000
     10      -6.6987      2.00000
     11      -6.6987      2.00000
     12      -6.6987      2.00000
     13      -6.6987      2.00000
     14      -6.6891      2.00000
     15      -6.6891      2.00000
     16      -6.6891      2.00000
     17      -6.6359      2.00000
     18      -6.6359      2.00000
     19      -6.6161      2.00000
     20      -6.6161      2.00000
     21      -6.6161      2.00000
     22      -6.3037      2.00000
     23      -6.3037      2.00000
     24      -6.3037      2.00000
     25      -2.5567      2.00000
     26      -2.5567      2.00000
     27      -2.5567      2.00000
     28      -0.3320      2.00000
     29      -0.3320      2.00000
     30      -0.3320      2.00000
     31      -0.3320      2.00000
     32      -0.3320      2.00000
     33      -0.3320      2.00000
     34       1.0601      1.99999
     35       1.0601      1.99999
     36       1.0601      1.99999
     37       1.3740      0.00002
     38       3.6764      0.00000
     39       3.6764      0.00000
     40       3.6764      0.00000
     41       3.9705      0.00000
     42       3.9705      0.00000
     43       3.9705      0.00000
     44       5.7275      0.00000
     45       5.7275      0.00000
     46       5.7275      0.00000
     47       8.2842      0.00000
     48       9.1288      0.00000

[...]

 k-point    10 :       0.4000    0.4000    0.4000
  band No.  band energies     occupation
      1      -9.1022      2.00000
      2      -9.0698      2.00000
      3      -9.0698      2.00000
      4      -9.0698      2.00000
      5      -6.7615      2.00000
      6      -6.7615      2.00000
      7      -6.7554      2.00000
      8      -6.7554      2.00000
      9      -6.7554      2.00000
     10      -6.7526      2.00000
     11      -6.7526      2.00000
     12      -6.7526      2.00000
     13      -6.6349      2.00000
     14      -6.6349      2.00000
     15      -6.6349      2.00000
     16      -6.6314      2.00000
     17      -6.6314      2.00000
     18      -6.6289      2.00000
     19      -6.6289      2.00000
     20      -6.6289      2.00000
     21      -6.4553      2.00000
     22      -6.3874      2.00000
     23      -6.3874      2.00000
     24      -6.3874      2.00000
     25      -2.5090      2.00000
     26      -2.5090      2.00000
     27      -2.5090      2.00000
     28      -2.3337      2.00000
     29       0.1574      2.00000
     30       0.1574      2.00000
     31       0.1574      2.00000
     32       0.3943      2.00000
     33       0.3943      2.00000
     34       0.3943      2.00000
     35       0.5351      2.00000
     36       0.5351      2.00000
     37       2.7348      0.00000
     38       3.1109      0.00000
     39       3.1109      0.00000
     40       3.1109      0.00000
     41       6.0321      0.00000
     42       6.0321      0.00000
     43       6.0321      0.00000
     44       6.2797      0.00000
     45       6.2797      0.00000
     46       6.5015      0.00000
     47       6.5015      0.00000
     48       6.5015      0.00000

 soft charge-density along one line, spin component           1
         0         1         2         3         4         5         6         7         8         9
 total charge-density along one line

------------------------ aborting loop because EDIFF is reached ----------------------------------------

  FORCE on cell =-STRESS in cart. coord.  units (eV):
  Direction    XX          YY          ZZ          XY          YZ          ZX
  Alpha Z   171.76003   171.76003   171.76003
  Ewald   -1322.67111 -1322.67111 -1322.67111    -0.00000    -0.00000     0.00000
  Hartree   711.28413   711.28413   711.28413    -0.00000    -0.00000    -0.00000
  E(xc)    -347.32186  -347.32186  -347.32186    -0.00000    -0.00000    -0.00000
  Local    -145.84367  -145.84367  -145.84367    -0.00000    -0.00000    -0.00000
  n-local    95.32183    99.99770    97.03230    -3.41806    -2.14631    -1.79873
  augment    24.38248    24.38248    24.38248     0.00000     0.00000    -0.00000
  Kinetic   801.89021   807.55301   806.36371    -3.11480    -2.35057    -1.83613
  Fock        0.00000     0.00000     0.00000     0.00000     0.00000     0.00000
  Total      -5.69041    -5.69041    -5.69041    -0.00000     0.00000     0.00000
  in kB     -28.64082   -28.64082   -28.64082    -0.00000     0.00000     0.00000

 VOLUME and BASIS-vectors are now :
  energy-cutoff  :      360.00
  volume of cell :      318.32
      direct lattice vectors                 reciprocal lattice vectors
     6.827939447  0.000000000  0.000000000     0.146457069  0.000000000  0.000000000
     0.000000000  6.827939447  0.000000000     0.000000000  0.146457069  0.000000000
     0.000000000  0.000000000  6.827939447     0.000000000  0.000000000  0.146457069

  length of vectors
     6.827939447  6.827939447  6.827939447     0.146457069  0.146457069  0.146457069

 FORCES acting on ions
    electron-ion (+dipol)            ewald-force                    non-local-force                 convergence-correction
   -.210E-12 0.974E-14 -.464E-13   0.284E-13 0.711E-14 0.000E+00   0.100E-16 0.203E-17 0.592E-18   -.930E-14 -.335E-13 -.414E-13
   -.211E-12 0.284E-12 0.224E-12   0.284E-13 0.711E-14 0.000E+00   -.100E-16 0.266E-17 0.147E-16   -.558E-13 0.243E-13 0.596E-13
   0.864E-13 -.321E-14 -.299E-11   0.711E-14 0.711E-14 0.000E+00   -.320E-17 0.225E-17 0.364E-18   -.571E-13 -.285E-13 0.658E-13
   0.812E-13 -.262E-11 -.271E-11   0.711E-14 0.711E-14 0.000E+00   -.196E-17 -.113E-16 -.625E-17   -.676E-13 0.378E-13 -.456E-14
   -.177E-13 0.170E-12 -.640E-13   -.132E-13 -.786E-14 -.300E-15   0.217E-16 -.152E-16 0.147E-16   -.745E-15 0.742E-13 0.584E-15
   -.125E-13 0.223E-12 -.581E-13   -.131E-13 -.678E-14 0.403E-15   0.211E-16 0.105E-16 0.415E-16   0.485E-14 0.320E-13 -.305E-13
   0.520E-14 0.544E-12 0.619E-12   -.223E-13 -.743E-14 0.412E-15   0.365E-16 -.141E-16 0.373E-16   -.616E-14 0.693E-13 -.414E-13
   0.520E-14 0.348E-12 0.825E-12   -.222E-13 -.635E-14 -.763E-15   -.758E-17 0.725E-17 0.140E-16   -.774E-14 0.215E-13 -.149E-14
   -.274E-12 -.105E-11 -.420E-11   0.276E-15 0.550E-17 -.248E-15   0.667E-16 -.159E-16 0.117E-15   -.200E-12 0.197E-12 0.665E-14

 POSITION                                       TOTAL-FORCE (eV/Angst)
      0.00000      0.00000      0.00000         0.000000      0.000000     -0.000000
      0.00000      3.41397      3.41397        -0.000000     -0.000000     -0.000000
      3.41397      0.00000      3.41397        -0.000000     -0.000000     -0.000000
      3.41397      3.41397      0.00000        -0.000000      0.000000      0.000000
      1.70698      1.70698      1.70698         0.000000     -0.000000     -0.000000
      1.70698      5.12095      5.12095         0.000000      0.000000      0.000000
      5.12095      1.70698      5.12095         0.000000      0.000000      0.000000
      5.12095      5.12095      1.70698         0.000000      0.000000     -0.000000
    total drift:                               -0.000000     -0.000000     -0.000000

  FREE ENERGIE OF THE ION-ELECTRON SYSTEM (eV)
  free  energy   TOTEN  =       -18.99657453 eV

  energy  without entropy=      -18.99657448  energy(sigma->0) =      -18.99657450

 reached required accuracy - stopping structural energy minimisation
 writing wavefunctions